<?xml version = "1.0" standalone="yes"?>
<!-- This file has been generated by DOcplex version 2.23.222  -->
<CPLEXSolution version="1.0">
 <header
   problemName="CVRP"
   objectiveValue="7029.95"
  />
 <variables>
  <variable name="x_0_1" index="0" value="1.00000"/>
  <variable name="x_0_2" index="1" value="1.00000"/>
  <variable name="x_0_3" index="2" value="1.00000"/>
  <variable name="x_0_5" index="4" value="1.00000"/>
  <variable name="x_0_6" index="5" value="1.00000"/>
  <variable name="x_0_8" index="7" value="1.00000"/>
  <variable name="x_0_13" index="12" value="1.00000"/>
  <variable name="x_0_14" index="13" value="1.00000"/>
  <variable name="x_1_12" index="25" value="1.00000"/>
  <variable name="x_2_9" index="36" value="1.00000"/>
  <variable name="x_3_11" index="52" value="1.00000"/>
  <variable name="x_4_0" index="56" value="1.00000"/>
  <variable name="x_5_4" index="74" value="1.00000"/>
  <variable name="x_6_0" index="84" value="1.00000"/>
  <variable name="x_7_0" index="98" value="1.00000"/>
  <variable name="x_8_0" index="112" value="1.00000"/>
  <variable name="x_9_10" index="135" value="1.00000"/>
  <variable name="x_10_0" index="140" value="1.00000"/>
  <variable name="x_11_0" index="154" value="1.00000"/>
  <variable name="x_12_0" index="168" value="1.00000"/>
  <variable name="x_13_0" index="182" value="1.00000"/>
  <variable name="x_14_7" index="203" value="1.00000"/>
  <variable name="u_1" index="210" value="3.00000"/>
  <variable name="u_2" index="211" value="18.00000"/>
  <variable name="u_3" index="212" value="33.00000"/>
  <variable name="u_4" index="213" value="70.00000"/>
  <variable name="u_5" index="214" value="48.00000"/>
  <variable name="u_6" index="215" value="44.00000"/>
  <variable name="u_7" index="216" value="58.00000"/>
  <variable name="u_8" index="217" value="57.00000"/>
  <variable name="u_9" index="218" value="54.00000"/>
  <variable name="u_10" index="219" value="66.00000"/>
  <variable name="u_11" index="220" value="37.00000"/>
  <variable name="u_12" index="221" value="43.00000"/>
  <variable name="u_13" index="222" value="64.00000"/>
  <variable name="u_14" index="223" value="1.00000"/>
 </variables>
</CPLEXSolution>
